\Problem name: compact

Minimize
OBJROW: C
Subject To
ord(0,1):  - x(0,1) + x(0,2) >= 7
ord(0,2):  x(0,0) - x(0,2) >= 7
ord(1,1):  x(1,0) - x(1,1) >= 4
ord(1,2):  - x(1,0) + x(1,2) >= 3
ord(2,1):  - x(2,1) + x(2,2) >= 7
ord(2,2):  x(2,0) - x(2,2) >= 6
triangle2(0,1,0):  y(0,1,0) + y(1,0,0) = 1
triangle2(0,1,1):  y(0,1,1) + y(1,0,1) = 1
triangle2(0,1,2):  y(0,1,2) + y(1,0,2) = 1
triangle2(0,2,0):  y(0,2,0) + y(2,0,0) = 1
triangle2(0,2,1):  y(0,2,1) + y(2,0,1) = 1
triangle2(0,2,2):  y(0,2,2) + y(2,0,2) = 1
triangle2(1,2,0):  y(1,2,0) + y(2,1,0) = 1
triangle2(1,2,1):  y(1,2,1) + y(2,1,1) = 1
triangle2(1,2,2):  y(1,2,2) + y(2,1,2) = 1
MCLinV(0,1,0):  - x(0,0) + v(0,1,0)p - v(0,1,0)n + x(1,0) = -3
MCLinV(1,0,0):  x(0,0) + v(1,0,0)p - v(1,0,0)n - x(1,0) = -1
MCLin1(0,1,0):  u(0,1,0)p - u(0,1,0)n >= 0
MCLin2(0,1,0):  23 y(1,0,0) + u(0,1,0)p - u(0,1,0)n >= 0
MCLin3(0,1,0):  -36 y(1,0,0) - v(0,1,0)p + v(0,1,0)n + u(0,1,0)p - u(0,1,0)n >= -36
MCLin4(0,1,0):  -36 y(1,0,0) + u(0,1,0)p - u(0,1,0)n <= 0
MCLin5(0,1,0):  23 y(1,0,0) - v(0,1,0)p + v(0,1,0)n + u(0,1,0)p - u(0,1,0)n <= 23
MCLin6(1,0,0):  u(1,0,0)p - u(1,0,0)n >= 0
MCLin7(1,0,0):  40 y(0,1,0) + u(1,0,0)p - u(1,0,0)n >= 0
MCLin8(1,0,0):  -19 y(0,1,0) - v(1,0,0)p + v(1,0,0)n + u(1,0,0)p - u(1,0,0)n >= -19
MCLin9(1,0,0):  -19 y(0,1,0) + u(1,0,0)p - u(1,0,0)n <= 0
MCLin10(1,0,0):  40 y(0,1,0) - v(1,0,0)p + v(1,0,0)n + u(1,0,0)p - u(1,0,0)n <= 40
MCLinV(0,1,1):  - x(0,1) + v(0,1,1)p - v(0,1,1)n + x(1,1) = -4
MCLinV(1,0,1):  x(0,1) + v(1,0,1)p - v(1,0,1)n - x(1,1) = -7
MCLin1(0,1,1):  u(0,1,1)p - u(0,1,1)n >= 0
MCLin2(0,1,1):  34 y(1,0,1) + u(0,1,1)p - u(0,1,1)n >= 0
MCLin3(0,1,1):  -25 y(1,0,1) - v(0,1,1)p + v(0,1,1)n + u(0,1,1)p - u(0,1,1)n >= -25
MCLin4(0,1,1):  -25 y(1,0,1) + u(0,1,1)p - u(0,1,1)n <= 0
MCLin5(0,1,1):  34 y(1,0,1) - v(0,1,1)p + v(0,1,1)n + u(0,1,1)p - u(0,1,1)n <= 34
MCLin6(1,0,1):  u(1,0,1)p - u(1,0,1)n >= 0
MCLin7(1,0,1):  36 y(0,1,1) + u(1,0,1)p - u(1,0,1)n >= 0
MCLin8(1,0,1):  -23 y(0,1,1) - v(1,0,1)p + v(1,0,1)n + u(1,0,1)p - u(1,0,1)n >= -23
MCLin9(1,0,1):  -23 y(0,1,1) + u(1,0,1)p - u(1,0,1)n <= 0
MCLin10(1,0,1):  36 y(0,1,1) - v(1,0,1)p + v(1,0,1)n + u(1,0,1)p - u(1,0,1)n <= 36
MCLinV(0,1,2):  - x(0,2) + v(0,1,2)p - v(0,1,2)n + x(1,2) = -7
MCLinV(1,0,2):  x(0,2) + v(1,0,2)p - v(1,0,2)n - x(1,2) = -7
MCLin1(0,1,2):  u(0,1,2)p - u(0,1,2)n >= 0
MCLin2(0,1,2):  37 y(1,0,2) + u(0,1,2)p - u(0,1,2)n >= 0
MCLin3(0,1,2):  -22 y(1,0,2) - v(0,1,2)p + v(0,1,2)n + u(0,1,2)p - u(0,1,2)n >= -22
MCLin4(0,1,2):  -22 y(1,0,2) + u(0,1,2)p - u(0,1,2)n <= 0
MCLin5(0,1,2):  37 y(1,0,2) - v(0,1,2)p + v(0,1,2)n + u(0,1,2)p - u(0,1,2)n <= 37
MCLin6(1,0,2):  u(1,0,2)p - u(1,0,2)n >= 0
MCLin7(1,0,2):  36 y(0,1,2) + u(1,0,2)p - u(1,0,2)n >= 0
MCLin8(1,0,2):  -23 y(0,1,2) - v(1,0,2)p + v(1,0,2)n + u(1,0,2)p - u(1,0,2)n >= -23
MCLin9(1,0,2):  -23 y(0,1,2) + u(1,0,2)p - u(1,0,2)n <= 0
MCLin10(1,0,2):  36 y(0,1,2) - v(1,0,2)p + v(1,0,2)n + u(1,0,2)p - u(1,0,2)n <= 36
MCLinV(0,2,0):  - x(0,0) + v(0,2,0)p - v(0,2,0)n + x(2,0) = -2
MCLinV(2,0,0):  x(0,0) + v(2,0,0)p - v(2,0,0)n - x(2,0) = -1
MCLin1(0,2,0):  u(0,2,0)p - u(0,2,0)n >= 0
MCLin2(0,2,0):  30 y(2,0,0) + u(0,2,0)p - u(0,2,0)n >= 0
MCLin3(0,2,0):  -28 y(2,0,0) - v(0,2,0)p + v(0,2,0)n + u(0,2,0)p - u(0,2,0)n >= -28
MCLin4(0,2,0):  -28 y(2,0,0) + u(0,2,0)p - u(0,2,0)n <= 0
MCLin5(0,2,0):  30 y(2,0,0) - v(0,2,0)p + v(0,2,0)n + u(0,2,0)p - u(0,2,0)n <= 30
MCLin6(2,0,0):  u(2,0,0)p - u(2,0,0)n >= 0
MCLin7(2,0,0):  31 y(0,2,0) + u(2,0,0)p - u(2,0,0)n >= 0
MCLin8(2,0,0):  -27 y(0,2,0) - v(2,0,0)p + v(2,0,0)n + u(2,0,0)p - u(2,0,0)n >= -27
MCLin9(2,0,0):  -27 y(0,2,0) + u(2,0,0)p - u(2,0,0)n <= 0
MCLin10(2,0,0):  31 y(0,2,0) - v(2,0,0)p + v(2,0,0)n + u(2,0,0)p - u(2,0,0)n <= 31
MCLinV(0,2,1):  - x(0,1) + v(0,2,1)p - v(0,2,1)n + x(2,1) = -7
MCLinV(2,0,1):  x(0,1) + v(2,0,1)p - v(2,0,1)n - x(2,1) = -7
MCLin1(0,2,1):  u(0,2,1)p - u(0,2,1)n >= 0
MCLin2(0,2,1):  36 y(2,0,1) + u(0,2,1)p - u(0,2,1)n >= 0
MCLin3(0,2,1):  -22 y(2,0,1) - v(0,2,1)p + v(0,2,1)n + u(0,2,1)p - u(0,2,1)n >= -22
MCLin4(0,2,1):  -22 y(2,0,1) + u(0,2,1)p - u(0,2,1)n <= 0
MCLin5(0,2,1):  36 y(2,0,1) - v(0,2,1)p + v(0,2,1)n + u(0,2,1)p - u(0,2,1)n <= 36
MCLin6(2,0,1):  u(2,0,1)p - u(2,0,1)n >= 0
MCLin7(2,0,1):  36 y(0,2,1) + u(2,0,1)p - u(2,0,1)n >= 0
MCLin8(2,0,1):  -22 y(0,2,1) - v(2,0,1)p + v(2,0,1)n + u(2,0,1)p - u(2,0,1)n >= -22
MCLin9(2,0,1):  -22 y(0,2,1) + u(2,0,1)p - u(2,0,1)n <= 0
MCLin10(2,0,1):  36 y(0,2,1) - v(2,0,1)p + v(2,0,1)n + u(2,0,1)p - u(2,0,1)n <= 36
MCLinV(0,2,2):  - x(0,2) + v(0,2,2)p - v(0,2,2)n + x(2,2) = -6
MCLinV(2,0,2):  x(0,2) + v(2,0,2)p - v(2,0,2)n - x(2,2) = -7
MCLin1(0,2,2):  u(0,2,2)p - u(0,2,2)n >= 0
MCLin2(0,2,2):  35 y(2,0,2) + u(0,2,2)p - u(0,2,2)n >= 0
MCLin3(0,2,2):  -23 y(2,0,2) - v(0,2,2)p + v(0,2,2)n + u(0,2,2)p - u(0,2,2)n >= -23
MCLin4(0,2,2):  -23 y(2,0,2) + u(0,2,2)p - u(0,2,2)n <= 0
MCLin5(0,2,2):  35 y(2,0,2) - v(0,2,2)p + v(0,2,2)n + u(0,2,2)p - u(0,2,2)n <= 35
MCLin6(2,0,2):  u(2,0,2)p - u(2,0,2)n >= 0
MCLin7(2,0,2):  36 y(0,2,2) + u(2,0,2)p - u(2,0,2)n >= 0
MCLin8(2,0,2):  -22 y(0,2,2) - v(2,0,2)p + v(2,0,2)n + u(2,0,2)p - u(2,0,2)n >= -22
MCLin9(2,0,2):  -22 y(0,2,2) + u(2,0,2)p - u(2,0,2)n <= 0
MCLin10(2,0,2):  36 y(0,2,2) - v(2,0,2)p + v(2,0,2)n + u(2,0,2)p - u(2,0,2)n <= 36
MCLinV(1,2,0):  - x(1,0) + v(1,2,0)p - v(1,2,0)n + x(2,0) = -2
MCLinV(2,1,0):  x(1,0) + v(2,1,0)p - v(2,1,0)n - x(2,0) = -3
MCLin1(1,2,0):  u(1,2,0)p - u(1,2,0)n >= 0
MCLin2(1,2,0):  40 y(2,1,0) + u(1,2,0)p - u(1,2,0)n >= 0
MCLin3(1,2,0):  -19 y(2,1,0) - v(1,2,0)p + v(1,2,0)n + u(1,2,0)p - u(1,2,0)n >= -19
MCLin4(1,2,0):  -19 y(2,1,0) + u(1,2,0)p - u(1,2,0)n <= 0
MCLin5(1,2,0):  40 y(2,1,0) - v(1,2,0)p + v(1,2,0)n + u(1,2,0)p - u(1,2,0)n <= 40
MCLin6(2,1,0):  u(2,1,0)p - u(2,1,0)n >= 0
MCLin7(2,1,0):  24 y(1,2,0) + u(2,1,0)p - u(2,1,0)n >= 0
MCLin8(2,1,0):  -35 y(1,2,0) - v(2,1,0)p + v(2,1,0)n + u(2,1,0)p - u(2,1,0)n >= -35
MCLin9(2,1,0):  -35 y(1,2,0) + u(2,1,0)p - u(2,1,0)n <= 0
MCLin10(2,1,0):  24 y(1,2,0) - v(2,1,0)p + v(2,1,0)n + u(2,1,0)p - u(2,1,0)n <= 24
MCLinV(1,2,1):  - x(1,1) + v(1,2,1)p - v(1,2,1)n + x(2,1) = -7
MCLinV(2,1,1):  x(1,1) + v(2,1,1)p - v(2,1,1)n - x(2,1) = -4
MCLin1(1,2,1):  u(1,2,1)p - u(1,2,1)n >= 0
MCLin2(1,2,1):  36 y(2,1,1) + u(1,2,1)p - u(1,2,1)n >= 0
MCLin3(1,2,1):  -23 y(2,1,1) - v(1,2,1)p + v(1,2,1)n + u(1,2,1)p - u(1,2,1)n >= -23
MCLin4(1,2,1):  -23 y(2,1,1) + u(1,2,1)p - u(1,2,1)n <= 0
MCLin5(1,2,1):  36 y(2,1,1) - v(1,2,1)p + v(1,2,1)n + u(1,2,1)p - u(1,2,1)n <= 36
MCLin6(2,1,1):  u(2,1,1)p - u(2,1,1)n >= 0
MCLin7(2,1,1):  34 y(1,2,1) + u(2,1,1)p - u(2,1,1)n >= 0
MCLin8(2,1,1):  -25 y(1,2,1) - v(2,1,1)p + v(2,1,1)n + u(2,1,1)p - u(2,1,1)n >= -25
MCLin9(2,1,1):  -25 y(1,2,1) + u(2,1,1)p - u(2,1,1)n <= 0
MCLin10(2,1,1):  34 y(1,2,1) - v(2,1,1)p + v(2,1,1)n + u(2,1,1)p - u(2,1,1)n <= 34
MCLinV(1,2,2):  - x(1,2) + v(1,2,2)p - v(1,2,2)n + x(2,2) = -6
MCLinV(2,1,2):  x(1,2) + v(2,1,2)p - v(2,1,2)n - x(2,2) = -7
MCLin1(1,2,2):  u(1,2,2)p - u(1,2,2)n >= 0
MCLin2(1,2,2):  35 y(2,1,2) + u(1,2,2)p - u(1,2,2)n >= 0
MCLin3(1,2,2):  -24 y(2,1,2) - v(1,2,2)p + v(1,2,2)n + u(1,2,2)p - u(1,2,2)n >= -24
MCLin4(1,2,2):  -24 y(2,1,2) + u(1,2,2)p - u(1,2,2)n <= 0
MCLin5(1,2,2):  35 y(2,1,2) - v(1,2,2)p + v(1,2,2)n + u(1,2,2)p - u(1,2,2)n <= 35
MCLin6(2,1,2):  u(2,1,2)p - u(2,1,2)n >= 0
MCLin7(2,1,2):  37 y(1,2,2) + u(2,1,2)p - u(2,1,2)n >= 0
MCLin8(2,1,2):  -22 y(1,2,2) - v(2,1,2)p + v(2,1,2)n + u(2,1,2)p - u(2,1,2)n >= -22
MCLin9(2,1,2):  -22 y(1,2,2) + u(2,1,2)p - u(2,1,2)n <= 0
MCLin10(2,1,2):  37 y(1,2,2) - v(2,1,2)p + v(2,1,2)n + u(2,1,2)p - u(2,1,2)n <= 37
makespan(0):  C - x(0,0) >= 1
makespan(1):  C - x(1,2) >= 7
makespan(2):  C - x(2,0) >= 2
cut_clique_1(0,1):  0.99097 x(0,1) + 0.97935 x(1,1) + 0.92892 x(2,1) >= 1
cut_clique_1(1,1):  0.89187 x(0,1) + 0.99110 x(1,1) + 0.97573 x(2,1) >= 1
cut_clique_1(2,1):  0.99927 x(0,1) + 0.95460 x(1,1) + 0.88027 x(2,1) >= 1
cut_clique_1(3,1):  0.99097 x(0,1) + 0.92391 x(1,1) + 0.92892 x(2,1) >= 1
cut_clique_1(4,1):  0.99216 x(0,1) + 0.98831 x(1,1) + 0.92954 x(2,1) >= 1
cut_clique_1(5,1):  0.96388 x(0,1) + 0.93585 x(1,1) + 0.94863 x(2,1) >= 1
cut_clique_1(6,1):  0.98234 x(0,1) + 0.95268 x(1,1) + 0.92963 x(2,1) >= 1
cut_clique_1(7,1):  0.99097 x(0,1) + 0.99110 x(1,1) + 0.92892 x(2,1) >= 1
cut_clique_1(8,1):  0.97706 x(0,1) + 0.92494 x(1,1) + 0.92963 x(2,1) >= 1
cut_clique_1(9,1):  0.92809 x(0,1) + 0.98413 x(1,1) + 0.95775 x(2,1) >= 1
cut_clique_1(10,1):  0.96033 x(0,1) + 0.92762 x(1,1) + 0.97672 x(2,1) >= 1
cut_clique_1(11,1):  0.96388 x(0,1) + 0.92649 x(1,1) + 0.94863 x(2,1) >= 1
cut_clique_1(12,1):  0.92790 x(0,1) + 0.92271 x(1,1) + 0.99525 x(2,1) >= 1
cut_clique_1(13,1):  0.91314 x(0,1) + 0.99455 x(1,1) + 0.92043 x(2,1) >= 1
cut_clique_1(14,1):  0.90714 x(0,1) + 0.96747 x(1,1) + 0.97633 x(2,1) >= 1
cut_clique_1(15,1):  0.93945 x(0,1) + 0.97438 x(1,1) + 0.95775 x(2,1) >= 1
cut_clique_1(16,1):  0.99216 x(0,1) + 0.95268 x(1,1) + 0.92963 x(2,1) >= 1
cut_clique_1(17,1):  0.94255 x(0,1) + 0.95867 x(1,1) + 0.92954 x(2,1) >= 1
cut_clique_1(18,1):  0.92654 x(0,1) + 0.95726 x(1,1) + 0.95616 x(2,1) >= 1
cut_clique_1(19,1):  0.96991 x(0,1) + 0.91874 x(1,1) + 0.97633 x(2,1) >= 1
cut_clique_1(20,1):  0.96033 x(0,1) + 0.96500 x(1,1) + 0.97672 x(2,1) >= 1
cut_clique_1(21,1):  0.97531 x(0,1) + 0.97243 x(1,1) + 0.95616 x(2,1) >= 1
cut_clique_1(22,1):  0.99992 x(0,1) + 0.82889 x(1,1) + 0.99956 x(2,1) >= 1
cut_clique_1(23,1):  0.92877 x(0,1) + 0.98753 x(1,1) + 0.95775 x(2,1) >= 1
cut_clique_1(24,1):  0.91314 x(0,1) + 0.99455 x(1,1) + 0.92963 x(2,1) >= 1
cut_clique_1(25,1):  0.99495 x(0,1) + 0.98753 x(1,1) + 0.84348 x(2,1) >= 1
cut_clique_1(26,1):  0.97531 x(0,1) + 0.89464 x(1,1) + 0.95616 x(2,1) >= 1
cut_clique_1(27,1):  0.97667 x(0,1) + 0.92494 x(1,1) + 0.92963 x(2,1) >= 1
cut_clique_1(28,1):  0.96770 x(0,1) + 0.89110 x(1,1) + 0.98165 x(2,1) >= 1
cut_clique_1(29,1):  0.92539 x(0,1) + 0.99427 x(1,1) + 0.95775 x(2,1) >= 1
cut_clique_1(30,1):  0.92790 x(0,1) + 0.95040 x(1,1) + 0.99525 x(2,1) >= 1
cut_clique_1(31,1):  0.93945 x(0,1) + 0.99427 x(1,1) + 0.95775 x(2,1) >= 1
cut_clique_1(32,1):  0.99927 x(0,1) + 0.95460 x(1,1) + 0.96733 x(2,1) >= 1
cut_clique_1(33,1):  0.99927 x(0,1) + 0.95460 x(1,1) + 0.95775 x(2,1) >= 1
cut_clique_1(34,1):  0.95668 x(0,1) + 0.98753 x(1,1) + 0.93202 x(2,1) >= 1
cut_clique_1(35,1):  0.97667 x(0,1) + 0.95268 x(1,1) + 0.92963 x(2,1) >= 1
cut_clique_1(36,1):  0.95231 x(0,1) + 0.95429 x(1,1) + 0.99956 x(2,1) >= 1
cut_clique_1(37,1):  0.92809 x(0,1) + 0.95460 x(1,1) + 0.95775 x(2,1) >= 1
cut_clique_1(38,1):  0.95668 x(0,1) + 0.98753 x(1,1) + 0.97085 x(2,1) >= 1
cut_clique_1(39,1):  0.99495 x(0,1) + 0.98753 x(1,1) + 0.87722 x(2,1) >= 1
cut_clique_1(40,1):  0.96033 x(0,1) + 0.95544 x(1,1) + 0.97672 x(2,1) >= 1
cut_clique_1(41,1):  0.99097 x(0,1) + 0.99110 x(1,1) + 0.97573 x(2,1) >= 1
cut_clique_1(42,1):  0.96388 x(0,1) + 0.92649 x(1,1) + 0.97709 x(2,1) >= 1
cut_clique_1(43,1):  0.94255 x(0,1) + 0.98831 x(1,1) + 0.92954 x(2,1) >= 1
cut_clique_1(44,1):  0.91568 x(0,1) + 0.95429 x(1,1) + 0.99956 x(2,1) >= 1
cut_clique_1(45,1):  0.99097 x(0,1) + 0.99110 x(1,1) + 0.96607 x(2,1) >= 1
cut_clique_1(46,1):  0.97065 x(0,1) + 0.90940 x(1,1) + 0.95616 x(2,1) >= 1
cut_clique_1(47,1):  0.99992 x(0,1) + 0.95429 x(1,1) + 0.99956 x(2,1) >= 1
cut_clique_1(48,1):  0.97409 x(0,1) + 0.99427 x(1,1) + 0.95775 x(2,1) >= 1
cut_clique_1(49,1):  0.99992 x(0,1) + 0.87034 x(1,1) + 0.99956 x(2,1) >= 1
cut_clique_1(0,2):  0.05060 x(1,2) + 0.05260 x(2,2) >= 1
cut_clique_1(1,2):  0.05498 x(1,2) + 0.04580 x(2,2) >= 1
cut_clique_1(2,2):  0.05333 x(1,2) + 0.04580 x(2,2) >= 1
cut_clique_1(3,2):  0.04984 x(1,2) + 0.05299 x(2,2) >= 1
cut_clique_1(4,2):  0.05060 x(1,2) + 0.05085 x(2,2) >= 1
cut_clique_1(5,2):  0.05338 x(1,2) + 0.04699 x(2,2) >= 1
cut_clique_1(6,2):  0.05179 x(1,2) + 0.05070 x(2,2) >= 1
cut_clique_1(7,2):  0.05144 x(1,2) + 0.04879 x(2,2) >= 1
cut_clique_1(8,2):  0.05111 x(1,2) + 0.04892 x(2,2) >= 1
cut_clique_1(9,2):  0.04959 x(1,2) + 0.05085 x(2,2) >= 1
cut_clique_1(10,2):  0.05231 x(1,2) + 0.05070 x(2,2) >= 1
cut_clique_1(11,2):  0.05093 x(1,2) + 0.04879 x(2,2) >= 1
cut_clique_1(12,2):  0.05034 x(1,2) + 0.05299 x(2,2) >= 1
cut_clique_1(13,2):  0.05060 x(1,2) + 0.04989 x(2,2) >= 1
cut_clique_1(14,2):  0.05231 x(1,2) + 0.04605 x(2,2) >= 1
cut_clique_1(15,2):  0.05144 x(1,2) + 0.05200 x(2,2) >= 1
cut_clique_1(16,2):  0.05080 x(1,2) + 0.05186 x(2,2) >= 1
cut_clique_1(17,2):  0.05080 x(1,2) + 0.05134 x(2,2) >= 1
cut_clique_1(18,2):  0.04978 x(1,2) + 0.05134 x(2,2) >= 1
cut_clique_1(19,2):  0.04929 x(1,2) + 0.05134 x(2,2) >= 1
cut_clique_1(20,2):  0.04929 x(1,2) + 0.05288 x(2,2) >= 1
cut_clique_1(21,2):  0.04959 x(1,2) + 0.05413 x(2,2) >= 1
cut_clique_1(22,2):  0.05126 x(1,2) + 0.05077 x(2,2) >= 1
cut_clique_1(23,2):  0.05228 x(1,2) + 0.05077 x(2,2) >= 1
cut_clique_1(24,2):  0.05060 x(1,2) + 0.05189 x(2,2) >= 1
cut_clique_1(25,2):  0.05231 x(1,2) + 0.05019 x(2,2) >= 1
cut_clique_1(26,2):  0.05144 x(1,2) + 0.05044 x(2,2) >= 1
cut_clique_1(27,2):  0.05338 x(1,2) + 0.04605 x(2,2) >= 1
cut_clique_1(28,2):  0.05502 x(1,2) + 0.04699 x(2,2) >= 1
cut_clique_1(29,2):  0.05392 x(1,2) + 0.04699 x(2,2) >= 1
cut_clique_1(30,2):  0.05060 x(1,2) + 0.05313 x(2,2) >= 1
cut_clique_1(31,2):  0.05093 x(1,2) + 0.04830 x(2,2) >= 1
cut_clique_1(32,2):  0.04959 x(1,2) + 0.05202 x(2,2) >= 1
cut_clique_1(33,2):  0.06318 x(1,2) + 0.04058 x(2,2) >= 1
cut_clique_1(34,2):  0.06191 x(1,2) + 0.04058 x(2,2) >= 1
cut_clique_1(35,2):  0.06315 x(1,2) + 0.04058 x(2,2) >= 1
cut_clique_1(36,2):  0.04662 x(1,2) + 0.05710 x(2,2) >= 1
cut_clique_1(37,2):  0.04713 x(1,2) + 0.05542 x(2,2) >= 1
cut_clique_1(38,2):  0.05919 x(1,2) + 0.04383 x(2,2) >= 1
cut_clique_1(39,2):  0.05551 x(1,2) + 0.04830 x(2,2) >= 1
cut_clique_1(40,2):  0.04959 x(1,2) + 0.05306 x(2,2) >= 1
cut_clique_1(41,2):  0.05060 x(1,2) + 0.04892 x(2,2) >= 1
cut_clique_1(42,2):  0.04984 x(1,2) + 0.05140 x(2,2) >= 1
cut_clique_1(43,2):  0.05375 x(1,2) + 0.04549 x(2,2) >= 1
cut_clique_1(44,2):  0.05375 x(1,2) + 0.04458 x(2,2) >= 1
cut_clique_1(45,2):  0.05375 x(1,2) + 0.04592 x(2,2) >= 1
cut_clique_1(46,2):  0.04959 x(1,2) + 0.05250 x(2,2) >= 1
cut_clique_1(47,2):  0.05375 x(1,2) + 0.04893 x(2,2) >= 1
cut_clique_1(48,2):  0.04959 x(1,2) + 0.05419 x(2,2) >= 1
cut_clique_1(49,2):  0.05060 x(1,2) + 0.04892 x(2,2) >= 1
cut_clique_2(0,1):  0.36991 x(0,1) + 0.00038 x(1,1) + 0.18828 x(2,1) >= 1
cut_clique_2(1,1):  0.44982 x(0,1) + 0.00039 x(1,1) + 0.18290 x(2,1) >= 1
cut_clique_2(2,1):  0.39296 x(0,1) + 0.00039 x(1,1) + 0.15171 x(2,1) >= 1
cut_clique_2(3,1):  0.18641 x(0,1) + 0.00014 x(1,1) + 0.25441 x(2,1) >= 1
cut_clique_2(4,1):  0.39296 x(0,1) + 0.00042 x(1,1) + 0.15171 x(2,1) >= 1
cut_clique_2(5,1):  0.18948 x(0,1) + 0.00014 x(1,1) + 0.28748 x(2,1) >= 1
cut_clique_2(6,1):  0.38510 x(0,1) + 0.00042 x(1,1) + 0.15171 x(2,1) >= 1
cut_clique_2(7,1):  0.17243 x(0,1) + 0.00014 x(1,1) + 0.28150 x(2,1) >= 1
cut_clique_2(8,1):  0.17226 x(0,1) + 0.00014 x(1,1) + 0.28150 x(2,1) >= 1
cut_clique_2(9,1):  0.44308 x(0,1) + 0.00022 x(1,1) + 0.25950 x(2,1) >= 1
cut_clique_2(10,1):  0.43183 x(0,1) + 0.00039 x(1,1) + 0.16827 x(2,1) >= 1
cut_clique_2(11,1):  0.38118 x(0,1) + 0.00042 x(1,1) + 0.17966 x(2,1) >= 1
cut_clique_2(12,1):  0.36991 x(0,1) + 0.00025 x(1,1) + 0.25708 x(2,1) >= 1
cut_clique_2(13,1):  0.18641 x(0,1) + 0.00018 x(1,1) + 0.25950 x(2,1) >= 1
cut_clique_2(14,1):  0.36991 x(0,1) + 0.00033 x(1,1) + 0.18828 x(2,1) >= 1
cut_clique_2(15,1):  0.33028 x(0,1) + 0.00038 x(1,1) + 0.18828 x(2,1) >= 1
cut_clique_2(16,1):  0.18641 x(0,1) + 0.00018 x(1,1) + 0.22317 x(2,1) >= 1
cut_clique_2(17,1):  0.36991 x(0,1) + 0.00025 x(1,1) + 0.25194 x(2,1) >= 1
cut_clique_2(18,1):  0.30867 x(0,1) + 0.00044 x(1,1) + 0.20439 x(2,1) >= 1
cut_clique_2(19,1):  0.30867 x(0,1) + 0.00046 x(1,1) + 0.20439 x(2,1) >= 1
cut_clique_2(20,1):  0.38118 x(0,1) + 0.00042 x(1,1) + 0.15760 x(2,1) >= 1
cut_clique_2(21,1):  0.18641 x(0,1) + 0.00018 x(1,1) + 0.25441 x(2,1) >= 1
cut_clique_2(22,1):  0.19946 x(0,1) + 0.00014 x(1,1) + 0.25441 x(2,1) >= 1
cut_clique_2(23,1):  0.36991 x(0,1) + 0.00030 x(1,1) + 0.18828 x(2,1) >= 1
cut_clique_2(24,1):  0.37740 x(0,1) + 0.00042 x(1,1) + 0.15171 x(2,1) >= 1
cut_clique_2(25,1):  0.18948 x(0,1) + 0.00014 x(1,1) + 0.27598 x(2,1) >= 1
cut_clique_2(26,1):  0.36991 x(0,1) + 0.00030 x(1,1) + 0.19496 x(2,1) >= 1
cut_clique_2(27,1):  0.38118 x(0,1) + 0.00042 x(1,1) + 0.16082 x(2,1) >= 1
cut_clique_2(28,1):  0.18641 x(0,1) + 0.00016 x(1,1) + 0.25441 x(2,1) >= 1
cut_clique_2(29,1):  0.30867 x(0,1) + 0.00038 x(1,1) + 0.19212 x(2,1) >= 1
cut_clique_2(30,1):  0.43183 x(0,1) + 0.00039 x(1,1) + 0.15171 x(2,1) >= 1
cut_clique_2(31,1):  0.36991 x(0,1) + 0.00029 x(1,1) + 0.19496 x(2,1) >= 1
cut_clique_2(32,1):  0.30867 x(0,1) + 0.00038 x(1,1) + 0.20439 x(2,1) >= 1
cut_clique_2(33,1):  0.36991 x(0,1) + 0.00022 x(1,1) + 0.25950 x(2,1) >= 1
cut_clique_2(34,1):  0.36991 x(0,1) + 0.00025 x(1,1) + 0.19496 x(2,1) >= 1
cut_clique_2(35,1):  0.36991 x(0,1) + 0.00022 x(1,1) + 0.25194 x(2,1) >= 1
cut_clique_2(36,1):  0.30867 x(0,1) + 0.00038 x(1,1) + 0.18828 x(2,1) >= 1
cut_clique_2(37,1):  0.18641 x(0,1) + 0.00022 x(1,1) + 0.25950 x(2,1) >= 1
cut_clique_2(38,1):  0.18948 x(0,1) + 0.00014 x(1,1) + 0.28150 x(2,1) >= 1
cut_clique_2(39,1):  0.36991 x(0,1) + 0.00030 x(1,1) + 0.20523 x(2,1) >= 1
cut_clique_2(40,1):  0.44982 x(0,1) + 0.00039 x(1,1) + 0.16827 x(2,1) >= 1
cut_clique_2(41,1):  0.18641 x(0,1) + 0.00019 x(1,1) + 0.25950 x(2,1) >= 1
cut_clique_2(42,1):  0.36991 x(0,1) + 0.00025 x(1,1) + 0.20892 x(2,1) >= 1
cut_clique_2(43,1):  0.36991 x(0,1) + 0.00025 x(1,1) + 0.24026 x(2,1) >= 1
cut_clique_2(44,1):  0.37740 x(0,1) + 0.00042 x(1,1) + 0.16082 x(2,1) >= 1
cut_clique_2(45,1):  0.18948 x(0,1) + 0.00014 x(1,1) + 0.25441 x(2,1) >= 1
cut_clique_2(46,1):  0.36991 x(0,1) + 0.00025 x(1,1) + 0.18327 x(2,1) >= 1
cut_clique_2(47,1):  0.43183 x(0,1) + 0.00039 x(1,1) + 0.16491 x(2,1) >= 1
cut_clique_2(48,1):  0.15519 x(0,1) + 0.00014 x(1,1) + 0.28150 x(2,1) >= 1
cut_clique_2(49,1):  0.39211 x(0,1) + 0.00022 x(1,1) + 0.25950 x(2,1) >= 1
cut_clique_2(0,2):  0.03652 x(0,2) + 0.03794 x(1,2) + 0.01123 x(2,2) >= 1
cut_clique_2(1,2):  0.03652 x(0,2) + 0.03643 x(1,2) + 0.01123 x(2,2) >= 1
cut_clique_2(2,2):  0.03652 x(0,2) + 0.03643 x(1,2) + 0.01190 x(2,2) >= 1
cut_clique_2(3,2):  0.03652 x(0,2) + 0.03606 x(1,2) + 0.01289 x(2,2) >= 1
cut_clique_2(4,2):  0.03574 x(0,2) + 0.03783 x(1,2) + 0.01175 x(2,2) >= 1
cut_clique_2(5,2):  0.04726 x(0,2) + 0.03187 x(1,2) + 0.01162 x(2,2) >= 1
cut_clique_2(6,2):  0.04726 x(0,2) + 0.03059 x(1,2) + 0.01162 x(2,2) >= 1
cut_clique_2(7,2):  0.04868 x(0,2) + 0.03059 x(1,2) + 0.01162 x(2,2) >= 1
cut_clique_2(8,2):  0.03953 x(0,2) + 0.03993 x(1,2) + 0.00815 x(2,2) >= 1
cut_clique_2(9,2):  0.03953 x(0,2) + 0.03993 x(1,2) + 0.00882 x(2,2) >= 1
cut_clique_2(10,2):  0.04844 x(0,2) + 0.03059 x(1,2) + 0.01290 x(2,2) >= 1
cut_clique_2(11,2):  0.04844 x(0,2) + 0.03029 x(1,2) + 0.01290 x(2,2) >= 1
cut_clique_2(12,2):  0.03953 x(0,2) + 0.04034 x(1,2) + 0.00876 x(2,2) >= 1
cut_clique_2(13,2):  0.03574 x(0,2) + 0.03575 x(1,2) + 0.01263 x(2,2) >= 1
cut_clique_2(14,2):  0.03685 x(0,2) + 0.03575 x(1,2) + 0.01289 x(2,2) >= 1
cut_clique_2(15,2):  0.03574 x(0,2) + 0.03503 x(1,2) + 0.01263 x(2,2) >= 1
cut_clique_2(16,2):  0.03543 x(0,2) + 0.03763 x(1,2) + 0.01289 x(2,2) >= 1
cut_clique_2(17,2):  0.03685 x(0,2) + 0.03575 x(1,2) + 0.01263 x(2,2) >= 1
cut_clique_2(18,2):  0.03685 x(0,2) + 0.03763 x(1,2) + 0.01289 x(2,2) >= 1
cut_clique_2(19,2):  0.03652 x(0,2) + 0.03643 x(1,2) + 0.01130 x(2,2) >= 1
cut_clique_2(20,2):  0.03652 x(0,2) + 0.03643 x(1,2) + 0.01289 x(2,2) >= 1
cut_clique_2(21,2):  0.03652 x(0,2) + 0.03390 x(1,2) + 0.01289 x(2,2) >= 1
cut_clique_2(22,2):  0.03652 x(0,2) + 0.03763 x(1,2) + 0.01289 x(2,2) >= 1
cut_clique_2(23,2):  0.03574 x(0,2) + 0.03783 x(1,2) + 0.01263 x(2,2) >= 1
cut_clique_2(24,2):  0.03953 x(0,2) + 0.04034 x(1,2) + 0.00815 x(2,2) >= 1
cut_clique_2(25,2):  0.04032 x(0,2) + 0.03874 x(1,2) + 0.00882 x(2,2) >= 1
cut_clique_2(26,2):  0.03951 x(0,2) + 0.03874 x(1,2) + 0.00873 x(2,2) >= 1
cut_clique_2(27,2):  0.04486 x(0,2) + 0.03430 x(1,2) + 0.01167 x(2,2) >= 1
cut_clique_2(28,2):  0.04037 x(0,2) + 0.03430 x(1,2) + 0.01167 x(2,2) >= 1
cut_clique_2(29,2):  0.04037 x(0,2) + 0.03430 x(1,2) + 0.01156 x(2,2) >= 1
cut_clique_2(30,2):  0.04037 x(0,2) + 0.03670 x(1,2) + 0.01156 x(2,2) >= 1
cut_clique_2(31,2):  0.04037 x(0,2) + 0.03744 x(1,2) + 0.01156 x(2,2) >= 1
cut_clique_2(32,2):  0.04037 x(0,2) + 0.03744 x(1,2) + 0.01167 x(2,2) >= 1
cut_clique_2(33,2):  0.03876 x(0,2) + 0.03744 x(1,2) + 0.01167 x(2,2) >= 1
cut_clique_2(34,2):  0.03876 x(0,2) + 0.03744 x(1,2) + 0.01272 x(2,2) >= 1
cut_clique_2(35,2):  0.03759 x(0,2) + 0.03744 x(1,2) + 0.01272 x(2,2) >= 1
cut_clique_2(36,2):  0.03759 x(0,2) + 0.03744 x(1,2) + 0.01285 x(2,2) >= 1
cut_clique_2(37,2):  0.03759 x(0,2) + 0.03444 x(1,2) + 0.01285 x(2,2) >= 1
cut_clique_2(38,2):  0.03759 x(0,2) + 0.03479 x(1,2) + 0.01285 x(2,2) >= 1
cut_clique_2(39,2):  0.03759 x(0,2) + 0.03513 x(1,2) + 0.01285 x(2,2) >= 1
cut_clique_2(40,2):  0.03534 x(0,2) + 0.03513 x(1,2) + 0.01285 x(2,2) >= 1
cut_clique_2(41,2):  0.03499 x(0,2) + 0.03513 x(1,2) + 0.01285 x(2,2) >= 1
cut_clique_2(42,2):  0.04023 x(0,2) + 0.03513 x(1,2) + 0.01285 x(2,2) >= 1
cut_clique_2(43,2):  0.04104 x(0,2) + 0.03513 x(1,2) + 0.01285 x(2,2) >= 1
cut_clique_2(44,2):  0.04104 x(0,2) + 0.03513 x(1,2) + 0.01144 x(2,2) >= 1
cut_clique_2(45,2):  0.04104 x(0,2) + 0.03513 x(1,2) + 0.01212 x(2,2) >= 1
cut_clique_2(46,2):  0.03953 x(0,2) + 0.03993 x(1,2) + 0.00856 x(2,2) >= 1
cut_clique_2(47,2):  0.03951 x(0,2) + 0.03874 x(1,2) + 0.00864 x(2,2) >= 1
cut_clique_2(48,2):  0.04032 x(0,2) + 0.03874 x(1,2) + 0.00873 x(2,2) >= 1
cut_clique_2(49,2):  0.03953 x(0,2) + 0.03874 x(1,2) + 0.00882 x(2,2) >= 1
cut_clique_3(0,1):  0.16941 x(1,1) + 0.30276 x(2,1) >= 1
cut_clique_3(1,1):  0.20326 x(1,1) + 0.27292 x(2,1) >= 1
cut_clique_3(2,1):  0.17013 x(1,1) + 0.25398 x(2,1) >= 1
cut_clique_3(3,1):  0.20326 x(1,1) + 0.27019 x(2,1) >= 1
cut_clique_3(4,1):  0.18293 x(1,1) + 0.25398 x(2,1) >= 1
cut_clique_3(5,1):  0.20164 x(1,1) + 0.29346 x(2,1) >= 1
cut_clique_3(6,1):  0.15003 x(1,1) + 0.26090 x(2,1) >= 1
cut_clique_3(7,1):  0.16672 x(1,1) + 0.25398 x(2,1) >= 1
cut_clique_3(8,1):  0.14405 x(1,1) + 0.30459 x(2,1) >= 1
cut_clique_3(9,1):  0.14409 x(1,1) + 0.25398 x(2,1) >= 1
cut_clique_3(10,1):  0.15640 x(1,1) + 0.27435 x(2,1) >= 1
cut_clique_3(11,1):  0.15327 x(1,1) + 0.27435 x(2,1) >= 1
cut_clique_3(12,1):  0.14405 x(1,1) + 0.25290 x(2,1) >= 1
cut_clique_3(13,1):  0.18499 x(1,1) + 0.29973 x(2,1) >= 1
cut_clique_3(14,1):  0.14855 x(1,1) + 0.25398 x(2,1) >= 1
cut_clique_3(15,1):  0.14405 x(1,1) + 0.29083 x(2,1) >= 1
cut_clique_3(16,1):  0.14850 x(1,1) + 0.26512 x(2,1) >= 1
cut_clique_3(17,1):  0.15327 x(1,1) + 0.25514 x(2,1) >= 1
cut_clique_3(18,1):  0.14744 x(1,1) + 0.25882 x(2,1) >= 1
cut_clique_3(19,1):  0.15753 x(1,1) + 0.26582 x(2,1) >= 1
cut_clique_3(20,1):  0.21172 x(1,1) + 0.27292 x(2,1) >= 1
cut_clique_3(21,1):  0.16941 x(1,1) + 0.29973 x(2,1) >= 1
cut_clique_3(22,1):  0.17788 x(1,1) + 0.29973 x(2,1) >= 1
cut_clique_3(23,1):  0.14405 x(1,1) + 0.28022 x(2,1) >= 1
cut_clique_3(24,1):  0.15640 x(1,1) + 0.30483 x(2,1) >= 1
cut_clique_3(25,1):  0.21172 x(1,1) + 0.29346 x(2,1) >= 1
cut_clique_3(26,1):  0.15173 x(1,1) + 0.25514 x(2,1) >= 1
cut_clique_3(27,1):  0.14405 x(1,1) + 0.26621 x(2,1) >= 1
cut_clique_3(28,1):  0.16941 x(1,1) + 0.29976 x(2,1) >= 1
cut_clique_3(29,1):  0.15513 x(1,1) + 0.32084 x(2,1) >= 1
cut_clique_3(30,1):  0.14415 x(1,1) + 0.25514 x(2,1) >= 1
cut_clique_3(31,1):  0.20326 x(1,1) + 0.25398 x(2,1) >= 1
cut_clique_3(32,1):  0.15513 x(1,1) + 0.33046 x(2,1) >= 1
cut_clique_3(33,1):  0.14767 x(1,1) + 0.25253 x(2,1) >= 1
cut_clique_3(34,1):  0.16559 x(1,1) + 0.30634 x(2,1) >= 1
cut_clique_3(35,1):  0.18287 x(1,1) + 0.30634 x(2,1) >= 1
cut_clique_3(36,1):  0.14405 x(1,1) + 0.27641 x(2,1) >= 1
cut_clique_3(37,1):  0.14744 x(1,1) + 0.25364 x(2,1) >= 1
cut_clique_3(38,1):  0.14405 x(1,1) + 0.26259 x(2,1) >= 1
cut_clique_3(39,1):  0.16218 x(1,1) + 0.25364 x(2,1) >= 1
cut_clique_3(40,1):  0.16063 x(1,1) + 0.30634 x(2,1) >= 1
cut_clique_3(41,1):  0.15202 x(1,1) + 0.33046 x(2,1) >= 1
cut_clique_3(42,1):  0.15902 x(1,1) + 0.30634 x(2,1) >= 1
cut_clique_3(43,1):  0.14405 x(1,1) + 0.28792 x(2,1) >= 1
cut_clique_3(44,1):  0.14895 x(1,1) + 0.33004 x(2,1) >= 1
cut_clique_3(45,1):  0.14702 x(1,1) + 0.26512 x(2,1) >= 1
cut_clique_3(46,1):  0.15753 x(1,1) + 0.26061 x(2,1) >= 1
cut_clique_3(47,1):  0.16506 x(1,1) + 0.25398 x(2,1) >= 1
cut_clique_3(48,1):  0.14405 x(1,1) + 0.25208 x(2,1) >= 1
cut_clique_3(49,1):  0.14415 x(1,1) + 0.25004 x(2,1) >= 1
cut_clique_4(0,1):  0.01023 x(0,1) + 0.13207 x(1,1) + 0.22233 x(2,1) >= 1
cut_clique_4(1,1):  0.01023 x(0,1) + 0.12811 x(1,1) + 0.22233 x(2,1) >= 1
cut_clique_4(2,1):  0.01023 x(0,1) + 0.12683 x(1,1) + 0.22233 x(2,1) >= 1
cut_clique_4(3,1):  0.15082 x(0,1) + 0.14309 x(2,1) >= 1
cut_clique_4(4,1):  0.01934 x(0,1) + 0.11859 x(1,1) + 0.19899 x(2,1) >= 1
cut_clique_4(5,1):  0.01934 x(0,1) + 0.11859 x(1,1) + 0.19700 x(2,1) >= 1
cut_clique_4(6,1):  0.02146 x(0,1) + 0.11859 x(1,1) + 0.19700 x(2,1) >= 1
cut_clique_4(7,1):  0.02039 x(0,1) + 0.11859 x(1,1) + 0.19700 x(2,1) >= 1
cut_clique_4(8,1):  0.02039 x(0,1) + 0.12333 x(1,1) + 0.19700 x(2,1) >= 1
cut_clique_4(9,1):  0.02039 x(0,1) + 0.11717 x(1,1) + 0.19700 x(2,1) >= 1
cut_clique_4(10,1):  0.01937 x(0,1) + 0.11717 x(1,1) + 0.19700 x(2,1) >= 1
cut_clique_4(11,1):  0.01937 x(0,1) + 0.12654 x(1,1) + 0.19700 x(2,1) >= 1
cut_clique_4(12,1):  0.00962 x(0,1) + 0.13305 x(1,1) + 0.22377 x(2,1) >= 1
cut_clique_4(13,1):  0.00962 x(0,1) + 0.12906 x(1,1) + 0.22377 x(2,1) >= 1
cut_clique_4(14,1):  0.01067 x(0,1) + 0.12906 x(1,1) + 0.22377 x(2,1) >= 1
cut_clique_4(15,1):  0.17010 x(0,1) + 0.14382 x(2,1) >= 1
cut_clique_4(16,1):  0.15487 x(0,1) + 0.16405 x(2,1) >= 1
cut_clique_4(17,1):  0.17192 x(0,1) + 0.15729 x(2,1) >= 1
cut_clique_4(18,1):  0.14785 x(0,1) + 0.15729 x(2,1) >= 1
cut_clique_4(19,1):  0.14785 x(0,1) + 0.14471 x(2,1) >= 1
cut_clique_4(20,1):  0.16116 x(0,1) + 0.14471 x(2,1) >= 1
cut_clique_4(21,1):  0.14527 x(0,1) + 0.14309 x(2,1) >= 1
cut_clique_4(22,1):  0.15984 x(0,1) + 0.15498 x(2,1) >= 1
cut_clique_4(23,1):  0.15984 x(0,1) + 0.14568 x(2,1) >= 1
cut_clique_4(24,1):  0.17422 x(0,1) + 0.14568 x(2,1) >= 1
cut_clique_4(25,1):  0.15487 x(0,1) + 0.15624 x(2,1) >= 1
cut_clique_4(26,1):  0.17422 x(0,1) + 0.14609 x(2,1) >= 1
cut_clique_4(27,1):  0.17018 x(0,1) + 0.15574 x(2,1) >= 1
cut_clique_4(28,1):  0.17018 x(0,1) + 0.16508 x(2,1) >= 1
cut_clique_4(29,1):  0.16047 x(0,1) + 0.14382 x(2,1) >= 1
cut_clique_4(30,1):  0.16892 x(0,1) + 0.14309 x(2,1) >= 1
cut_clique_4(31,1):  0.16918 x(0,1) + 0.15848 x(2,1) >= 1
cut_clique_4(32,1):  0.16918 x(0,1) + 0.15531 x(2,1) >= 1
cut_clique_4(33,1):  0.16918 x(0,1) + 0.15220 x(2,1) >= 1
cut_clique_4(34,1):  0.16918 x(0,1) + 0.14916 x(2,1) >= 1
cut_clique_4(35,1):  0.15903 x(0,1) + 0.14916 x(2,1) >= 1
cut_clique_4(36,1):  0.15903 x(0,1) + 0.14618 x(2,1) >= 1
cut_clique_4(37,1):  0.14472 x(0,1) + 0.14618 x(2,1) >= 1
cut_clique_4(38,1):  0.14401 x(0,1) + 0.15933 x(2,1) >= 1
cut_clique_4(39,1):  0.14401 x(0,1) + 0.14499 x(2,1) >= 1
cut_clique_4(40,1):  0.14401 x(0,1) + 0.16529 x(2,1) >= 1
cut_clique_4(41,1):  0.14527 x(0,1) + 0.14844 x(2,1) >= 1
cut_clique_4(42,1):  0.16047 x(0,1) + 0.16279 x(2,1) >= 1
cut_clique_4(43,1):  0.16141 x(0,1) + 0.14959 x(2,1) >= 1
cut_clique_4(44,1):  0.15657 x(0,1) + 0.14959 x(2,1) >= 1
cut_clique_4(45,1):  0.17094 x(0,1) + 0.16001 x(2,1) >= 1
cut_clique_4(46,1):  0.17010 x(0,1) + 0.16396 x(2,1) >= 1
cut_clique_4(47,1):  0.16752 x(0,1) + 0.18402 x(2,1) >= 1
cut_clique_4(48,1):  0.16047 x(0,1) + 0.15139 x(2,1) >= 1
cut_clique_4(49,1):  0.17278 x(0,1) + 0.15066 x(2,1) >= 1
cut_clique_5(0,1):  0.07452 x(0,1) + 0.03701 x(1,1) + 0.06926 x(2,1) >= 1
cut_clique_5(1,1):  0.06631 x(0,1) + 0.03879 x(1,1) + 0.07045 x(2,1) >= 1
cut_clique_5(2,1):  0.06965 x(0,1) + 0.04177 x(1,1) + 0.06730 x(2,1) >= 1
cut_clique_5(3,1):  0.06631 x(0,1) + 0.03879 x(1,1) + 0.07243 x(2,1) >= 1
cut_clique_5(4,1):  0.07240 x(0,1) + 0.03801 x(1,1) + 0.06986 x(2,1) >= 1
cut_clique_5(5,1):  0.07098 x(0,1) + 0.03862 x(1,1) + 0.06974 x(2,1) >= 1
cut_clique_5(6,1):  0.06980 x(0,1) + 0.03879 x(1,1) + 0.07045 x(2,1) >= 1
cut_clique_5(7,1):  0.06965 x(0,1) + 0.03801 x(1,1) + 0.07133 x(2,1) >= 1
cut_clique_5(8,1):  0.07066 x(0,1) + 0.03627 x(1,1) + 0.07398 x(2,1) >= 1
cut_clique_5(9,1):  0.06766 x(0,1) + 0.03801 x(1,1) + 0.06986 x(2,1) >= 1
cut_clique_5(10,1):  0.06806 x(0,1) + 0.03763 x(1,1) + 0.06776 x(2,1) >= 1
cut_clique_5(11,1):  0.07066 x(0,1) + 0.03627 x(1,1) + 0.07981 x(2,1) >= 1
cut_clique_5(12,1):  0.06858 x(0,1) + 0.03987 x(1,1) + 0.06642 x(2,1) >= 1
cut_clique_5(13,1):  0.06686 x(0,1) + 0.03801 x(1,1) + 0.07133 x(2,1) >= 1
cut_clique_5(14,1):  0.06631 x(0,1) + 0.03879 x(1,1) + 0.06833 x(2,1) >= 1
cut_clique_5(15,1):  0.06630 x(0,1) + 0.03879 x(1,1) + 0.07026 x(2,1) >= 1
cut_clique_5(16,1):  0.06858 x(0,1) + 0.03901 x(1,1) + 0.06642 x(2,1) >= 1
cut_clique_5(17,1):  0.06686 x(0,1) + 0.03801 x(1,1) + 0.06991 x(2,1) >= 1
cut_clique_5(18,1):  0.06630 x(0,1) + 0.04059 x(1,1) + 0.07026 x(2,1) >= 1
cut_clique_5(19,1):  0.06980 x(0,1) + 0.03879 x(1,1) + 0.06774 x(2,1) >= 1
cut_clique_5(20,1):  0.07293 x(0,1) + 0.03775 x(1,1) + 0.06815 x(2,1) >= 1
cut_clique_5(21,1):  0.06697 x(0,1) + 0.03879 x(1,1) + 0.07026 x(2,1) >= 1
cut_clique_5(22,1):  0.07293 x(0,1) + 0.03692 x(1,1) + 0.07360 x(2,1) >= 1
cut_clique_5(23,1):  0.07240 x(0,1) + 0.03801 x(1,1) + 0.06776 x(2,1) >= 1
cut_clique_5(24,1):  0.06858 x(0,1) + 0.04107 x(1,1) + 0.06642 x(2,1) >= 1
cut_clique_5(25,1):  0.06686 x(0,1) + 0.03801 x(1,1) + 0.06986 x(2,1) >= 1
cut_clique_5(26,1):  0.07066 x(0,1) + 0.03627 x(1,1) + 0.07170 x(2,1) >= 1
cut_clique_5(27,1):  0.07240 x(0,1) + 0.03763 x(1,1) + 0.06776 x(2,1) >= 1
cut_clique_5(28,1):  0.06686 x(0,1) + 0.03801 x(1,1) + 0.06921 x(2,1) >= 1
cut_clique_5(29,1):  0.07344 x(0,1) + 0.03893 x(1,1) + 0.06776 x(2,1) >= 1
cut_clique_5(30,1):  0.06630 x(0,1) + 0.04228 x(1,1) + 0.07026 x(2,1) >= 1
cut_clique_5(31,1):  0.06980 x(0,1) + 0.04083 x(1,1) + 0.06774 x(2,1) >= 1
cut_clique_5(32,1):  0.06790 x(0,1) + 0.03987 x(1,1) + 0.07066 x(2,1) >= 1
cut_clique_5(33,1):  0.07066 x(0,1) + 0.03627 x(1,1) + 0.07955 x(2,1) >= 1
cut_clique_5(34,1):  0.06806 x(0,1) + 0.03876 x(1,1) + 0.06776 x(2,1) >= 1
cut_clique_5(35,1):  0.07066 x(0,1) + 0.03627 x(1,1) + 0.07250 x(2,1) >= 1
cut_clique_5(36,1):  0.07066 x(0,1) + 0.03627 x(1,1) + 0.07103 x(2,1) >= 1
cut_clique_5(37,1):  0.06686 x(0,1) + 0.03801 x(1,1) + 0.06782 x(2,1) >= 1
cut_clique_5(38,1):  0.06697 x(0,1) + 0.03879 x(1,1) + 0.07243 x(2,1) >= 1
cut_clique_5(39,1):  0.06980 x(0,1) + 0.03895 x(1,1) + 0.06774 x(2,1) >= 1
cut_clique_5(40,1):  0.07066 x(0,1) + 0.03627 x(1,1) + 0.07601 x(2,1) >= 1
cut_clique_5(41,1):  0.06790 x(0,1) + 0.03987 x(1,1) + 0.06642 x(2,1) >= 1
cut_clique_5(42,1):  0.07098 x(0,1) + 0.03862 x(1,1) + 0.06642 x(2,1) >= 1
cut_clique_5(43,1):  0.06900 x(0,1) + 0.03739 x(1,1) + 0.07587 x(2,1) >= 1
cut_clique_5(44,1):  0.06900 x(0,1) + 0.03739 x(1,1) + 0.07283 x(2,1) >= 1
cut_clique_5(45,1):  0.06900 x(0,1) + 0.03739 x(1,1) + 0.07138 x(2,1) >= 1
cut_clique_5(46,1):  0.06900 x(0,1) + 0.03739 x(1,1) + 0.07066 x(2,1) >= 1
cut_clique_5(47,1):  0.06900 x(0,1) + 0.03739 x(1,1) + 0.06996 x(2,1) >= 1
cut_clique_5(48,1):  0.06900 x(0,1) + 0.03701 x(1,1) + 0.06996 x(2,1) >= 1
cut_clique_5(49,1):  0.06900 x(0,1) + 0.03701 x(1,1) + 0.06926 x(2,1) >= 1
Bounds
 0 <= C <= 44
 14 <= x(0,0) <= 43
 0 <= y(0,1,0) <= 1
 0 <= y(1,0,0) <= 1
 0 <= v(0,1,0)p <= 36
 0 <= v(0,1,0)n <= 23
 0 <= v(1,0,0)p <= 19
 0 <= v(1,0,0)n <= 40
 0 <= u(0,1,0)p <= 440
 0 <= u(0,1,0)n <= 440
 0 <= u(1,0,0)p <= 440
 0 <= u(1,0,0)n <= 440
 0 <= y(0,2,0) <= 1
 0 <= y(2,0,0) <= 1
 0 <= v(0,2,0)p <= 28
 0 <= v(0,2,0)n <= 30
 0 <= v(2,0,0)p <= 27
 0 <= v(2,0,0)n <= 31
 0 <= u(0,2,0)p <= 440
 0 <= u(0,2,0)n <= 440
 0 <= u(2,0,0)p <= 440
 0 <= u(2,0,0)n <= 440
 4 <= x(1,0) <= 34
 0 <= y(1,2,0) <= 1
 0 <= y(2,1,0) <= 1
 0 <= v(1,2,0)p <= 19
 0 <= v(1,2,0)n <= 40
 0 <= v(2,1,0)p <= 35
 0 <= v(2,1,0)n <= 24
 0 <= u(1,2,0)p <= 440
 0 <= u(1,2,0)n <= 440
 0 <= u(2,1,0)p <= 440
 0 <= u(2,1,0)n <= 440
 13 <= x(2,0) <= 42
 0 <= x(0,1) <= 29
 0 <= y(0,1,1) <= 1
 0 <= y(1,0,1) <= 1
 0 <= v(0,1,1)p <= 25
 0 <= v(0,1,1)n <= 34
 0 <= v(1,0,1)p <= 23
 0 <= v(1,0,1)n <= 36
 0 <= u(0,1,1)p <= 440
 0 <= u(0,1,1)n <= 440
 0 <= u(1,0,1)p <= 440
 0 <= u(1,0,1)n <= 440
 0 <= y(0,2,1) <= 1
 0 <= y(2,0,1) <= 1
 0 <= v(0,2,1)p <= 22
 0 <= v(0,2,1)n <= 36
 0 <= v(2,0,1)p <= 22
 0 <= v(2,0,1)n <= 36
 0 <= u(0,2,1)p <= 440
 0 <= u(0,2,1)n <= 440
 0 <= u(2,0,1)p <= 440
 0 <= u(2,0,1)n <= 440
 0 <= x(1,1) <= 30
 0 <= y(1,2,1) <= 1
 0 <= y(2,1,1) <= 1
 0 <= v(1,2,1)p <= 23
 0 <= v(1,2,1)n <= 36
 0 <= v(2,1,1)p <= 25
 0 <= v(2,1,1)n <= 34
 0 <= u(1,2,1)p <= 440
 0 <= u(1,2,1)n <= 440
 0 <= u(2,1,1)p <= 440
 0 <= u(2,1,1)n <= 440
 0 <= x(2,1) <= 29
 7 <= x(0,2) <= 36
 0 <= y(0,1,2) <= 1
 0 <= y(1,0,2) <= 1
 0 <= v(0,1,2)p <= 22
 0 <= v(0,1,2)n <= 37
 0 <= v(1,0,2)p <= 23
 0 <= v(1,0,2)n <= 36
 0 <= u(0,1,2)p <= 440
 0 <= u(0,1,2)n <= 440
 0 <= u(1,0,2)p <= 440
 0 <= u(1,0,2)n <= 440
 0 <= y(0,2,2) <= 1
 0 <= y(2,0,2) <= 1
 0 <= v(0,2,2)p <= 23
 0 <= v(0,2,2)n <= 35
 0 <= v(2,0,2)p <= 22
 0 <= v(2,0,2)n <= 36
 0 <= u(0,2,2)p <= 440
 0 <= u(0,2,2)n <= 440
 0 <= u(2,0,2)p <= 440
 0 <= u(2,0,2)n <= 440
 7 <= x(1,2) <= 37
 0 <= y(1,2,2) <= 1
 0 <= y(2,1,2) <= 1
 0 <= v(1,2,2)p <= 24
 0 <= v(1,2,2)n <= 35
 0 <= v(2,1,2)p <= 22
 0 <= v(2,1,2)n <= 37
 0 <= u(1,2,2)p <= 440
 0 <= u(1,2,2)n <= 440
 0 <= u(2,1,2)p <= 440
 0 <= u(2,1,2)n <= 440
 7 <= x(2,2) <= 36
End
